Problem:    ParteB
Rows:       11
Columns:    8 (8 integer, 0 binary)
Non-zeros:  21
Status:     INTEGER OPTIMAL
Objective:  z = 8458100 (MAXimum)

   No.   Row name        Activity     Lower bound   Upper bound
------ ------------    ------------- ------------- -------------
     1 z                  8.4581e+06                             
     2 predio                   7992                        8000 
     3 ubicacionesVip
                                   0            -0             = 
     4 protocolo                 100           100               
     5 generales                1332           500               
     6 paquetes                  333                         800 
     7 paqueteVip                  0            -0             = 
     8 paqueteGeneral
                                   0            -0             = 
     9 ubicEntrVipProto
                                   0            -0             = 
    10 ubicEntrVipComun
                                   0            -0             = 
    11 ubicGeneral                 0            -0             = 

   No. Column name       Activity     Lower bound   Upper bound
------ ------------    ------------- ------------- -------------
     1 V            *           6660             0               
     2 Vc           *           6560             0               
     3 Vp           *            100             0               
     4 G            *           1332             0               
     5 Evc          *           6560             0               
     6 Evp          *            100             0               
     7 Eg           *           2664             0               
     8 P            *            333             0               

Integer feasibility conditions:

KKT.PE: max.abs.err = 0.00e+00 on row 0
        max.rel.err = 0.00e+00 on row 0
        High quality

KKT.PB: max.abs.err = 0.00e+00 on row 0
        max.rel.err = 0.00e+00 on row 0
        High quality

End of output
